; QF_LIA benchmark: system_09
(set-logic QF_LIA)
(declare-fun v0 () Int)
(declare-fun v1 () Int)
(assert (>= (+ (* 2 v0) (* -5 v1)) 42))
(assert (>= (+ (* 1 v0) (* 5 v1)) -31))
(assert (= (+ (* 2 v0) (* -1 v1)) -7))
(assert (<= (+ (* 1 v0) (* 5 v1)) -40))
(assert (<= (+ (* 5 v0) (* 3 v1)) -2))
(assert (>= (+ (* 5 v0) (* 2 v1)) 19))
(assert (= (+ (* 4 v0) (* -4 v1)) -20))
(assert (= (+ (* 5 v0) (* -1 v1)) -21))
(check-sat)
(exit)
